peakDumbCharging = 18500; 
Machine = anon_enum(16); 
machineSpeed = [3700,3700,3700,3700,3700,3700,3700,3700,3700,3700,3700,3700,3700,3700,3700,3700]; 
machineLoad = [3700,3700,3700,3700,3700,3700,3700,3700,3700,3700,3700,3700,3700,3700,3700,3700]; 
Car = anon_enum(14); 
demandCar = [9480,3000,17880,2400,21480,18080,8240,9200,27200,640,9200,12760,27240,12360]; 
arrivalCar = [76,66,66,61,58,57,55,55,53,52,49,49,45,43]; 
departureCar = [80,68,74,63,66,66,61,61,62,54,54,54,54,50]; 
